c ren 1 -> 1
c ren 2 -> 2
c ren 4 -> 3
c ren 6 -> 4
c ren 7 -> 5
c ren 9 -> 6
c ren 10 -> 7
c ren 11 -> 8
c ren 14 -> 9
c ren 15 -> 10
c ren 17 -> 11
c ren 20 -> 12
c ren 23 -> 13
c ren 24 -> 14
c ren 26 -> 15
c ren 32 -> 16
c ren 36 -> 17
c ren 37 -> 18
c ren 38 -> 19
c ren 39 -> 20
c ren 44 -> 21
c ren 45 -> 22
c ren 47 -> 23
c ren 51 -> 24
c ren 52 -> 25
c ren 53 -> 26
c ren 54 -> 27
c ren 57 -> 28
c ren 58 -> 29
c ren 59 -> 30
c ren 61 -> 31
c ren 68 -> 32
c ren 75 -> 33
c ren 126 -> 34
c ren 138 -> 35
c ren 148 -> 36
c ren 159 -> 37
c ren 172 -> 38
p cnf 38 142
a 1 2 3 6 9 10 11 13 14 15 16 17 18 19 21 22 23 25 28 32 33 36 37 38 0
d 7 32 33 0
d 26 17 21 0
d 29 1 6 0
d 30 9 13 0
d 34 16 22 0
d 35 25 28 0
e 4 5 8 12 20 24 27 31 0
-2 -4 0
-3 -4 0
2 3 4 0
-1 -4 5 0
1 4 5 0
-1 4 -5 0
1 -4 -5 0
-6 -7 8 0
6 7 8 0
-6 7 -8 0
6 -7 -8 0
8 24 0
-4 -5 -8 -12 -13 14 15 -16 -17 20 -21 22 -23 -24 0
-9 -10 -12 0
-9 10 11 12 0
-11 18 -19 24 -27 -29 -30 -31 0
9 10 11 -12 0
-10 18 -19 24 -27 -29 -30 -31 0
-10 24 -27 -31 -35 0
10 14 -15 24 -27 -29 -31 -33 0
12 24 0
-4 -5 -8 -12 -13 14 15 -16 -17 20 21 -22 -24 0
-11 20 22 23 24 -27 -29 -30 -31 36 -37 0
-4 -5 -8 -12 13 -14 -16 17 -20 -21 22 -23 -24 0
-7 10 11 14 15 20 24 -27 -31 -33 -34 0
-4 -5 -8 -12 13 -15 -16 17 -20 21 -22 -24 0
-4 -5 -8 -12 -13 14 15 -16 17 -20 21 23 -24 0
-4 -5 -8 -12 -13 14 15 -16 17 -20 -21 22 -23 -24 0
4 -5 -8 -12 13 -14 16 -17 20 21 23 -24 0
4 -5 -8 -12 -13 14 15 16 -17 20 -21 22 -23 -24 0
-4 -5 -8 -12 -13 14 15 -16 17 -20 21 -22 -24 0
4 -5 -8 -12 -13 14 15 16 -17 20 21 -22 -24 0
4 -5 -8 -12 13 -14 16 17 -20 21 -22 -24 0
4 -5 -8 -12 -13 14 15 16 17 -20 21 -22 -24 0
4 -5 -8 -12 -13 14 15 16 -17 20 21 23 -24 0
4 -5 -8 -12 13 -14 16 -17 20 21 -22 -24 0
4 -5 -8 -12 -13 14 15 16 17 -20 21 23 -24 0
4 -5 -8 -12 -13 14 15 16 17 -20 -21 22 -23 -24 0
-4 -5 -8 -12 13 -14 -16 -17 20 -21 22 -23 -24 0
18 -20 0
19 -20 0
-18 -19 20 0
4 -5 -8 -12 13 -14 16 17 -20 -21 22 -23 -24 0
4 -5 -8 -12 13 -14 16 -17 20 -21 22 -23 -24 0
-4 -5 -8 -12 13 -14 -16 -17 20 21 -22 -24 0
4 -5 -8 -12 13 -14 16 17 -20 21 23 -24 0
-4 -5 -8 -12 13 -14 -16 17 -20 21 -22 -24 0
-4 -5 -8 -12 13 -15 -16 -17 20 -21 22 -23 -24 0
-4 -5 -8 -12 13 -14 -16 17 -20 21 23 -24 0
-11 24 -27 -31 -35 0
-4 -5 -8 -12 13 -15 -16 -17 20 21 -22 -24 0
-25 -26 27 0
25 26 27 0
-28 -29 -30 31 0
9 -10 12 0
-4 10 11 14 15 18 22 23 24 -27 30 -31 32 33 36 38 0
28 30 31 0
-19 20 22 23 24 -27 -29 -30 -31 36 38 0
-4 -5 -8 -12 13 -15 -16 -17 20 21 23 -24 0
-4 -5 -8 -12 13 -15 -16 17 -20 -21 22 -23 -24 0
4 -5 -8 -12 13 -15 16 -17 20 -21 22 -23 -24 0
-4 -5 -8 -12 13 -15 -16 17 -20 21 23 -24 0
-4 -5 -8 -12 13 -14 -16 -17 20 21 23 -24 0
4 -5 -8 -12 13 -15 16 -17 20 21 -22 -24 0
24 -27 -31 -32 -35 0
-4 10 11 14 15 18 22 23 24 -27 30 -31 32 33 36 -37 0
-4 10 14 18 22 23 24 -27 29 -31 32 33 36 38 0
-4 10 -11 24 -27 29 -31 32 33 0
18 -19 24 -27 -29 -30 -31 -32 0
4 10 -11 24 -27 -29 -31 0
20 22 23 24 -27 -29 -30 -31 -32 36 -37 0
2 3 -7 -10 24 -27 -31 -32 0
4 -5 -8 -12 13 -15 16 -17 20 21 23 -24 0
4 -5 -8 -12 13 -15 16 17 -20 21 -22 -24 0
2 3 -7 -10 24 -27 -31 -33 0
4 -5 -8 -12 13 -15 16 17 -20 21 23 -24 0
5 24 0
2 3 7 -10 24 -27 -31 32 33 0
2 3 -7 11 15 -18 24 -27 -31 -32 0
2 3 7 11 -14 24 -27 -31 32 33 0
-4 -5 -8 -12 -13 14 15 -16 -17 20 21 23 -24 0
2 3 -7 11 15 20 22 23 24 -27 -31 -33 -36 0
2 3 -7 11 -14 24 -27 -31 -32 0
4 -5 -8 -12 13 -15 16 17 -20 -21 22 -23 -24 0
-11 20 22 23 24 -27 -29 -30 -31 36 38 0
2 3 -7 11 15 -18 24 -27 -31 -33 0
4 18 -19 24 -27 -29 -30 -31 0
10 -11 24 -27 -29 -31 -33 0
4 20 22 23 24 -27 -29 -30 -31 36 -37 0
-4 10 11 14 15 18 19 22 -23 24 -27 -31 32 33 35 0
24 -27 -31 -33 -35 0
20 22 23 24 -27 -29 -30 -31 -33 36 -37 0
4 24 -27 -31 -35 0
4 20 22 23 24 -27 -29 -30 -31 36 38 0
18 -19 24 -27 -29 -30 -31 -33 0
-7 10 11 14 15 20 24 -27 -31 -32 -34 0
2 3 7 11 15 19 23 24 -27 -31 32 33 37 -38 0
2 3 7 11 15 19 -22 24 -27 -31 32 33 0
2 3 -7 11 15 20 22 23 24 -27 -31 -32 -36 0
2 3 -7 10 11 14 15 -18 20 22 23 24 -27 -31 37 -38 0
2 3 7 11 15 19 23 24 -27 -31 32 33 -36 0
-7 10 11 14 15 -19 20 24 -27 -31 -34 0
-10 20 22 23 24 -27 -29 -30 -31 36 38 0
-14 20 22 23 24 -27 -29 -30 -31 36 -37 0
10 14 -15 24 -27 -29 -31 -32 0
-10 20 22 23 24 -27 -29 -30 -31 36 -37 0
-18 20 22 23 24 -27 -29 -30 -31 36 38 0
2 3 -7 11 15 20 22 23 24 -27 -31 -32 37 -38 0
20 22 23 24 -27 -29 -30 -31 -32 36 38 0
-15 18 -19 24 -27 -29 -30 -31 0
9 -11 12 0
-15 20 22 23 24 -27 -29 -30 -31 36 -37 0
-4 10 11 14 15 18 -19 24 -27 30 -31 32 33 0
-14 24 -27 -31 -35 0
-4 10 14 18 22 23 24 -27 29 -31 32 33 36 -37 0
-15 24 -27 -31 -35 0
-14 18 -19 24 -27 -29 -30 -31 0
2 3 -7 10 11 14 15 -19 20 22 23 24 -27 -31 -36 0
2 3 -7 11 -14 24 -27 -31 -33 0
2 3 -7 10 11 14 15 -18 20 22 23 24 -27 -31 -36 0
2 3 -7 11 15 20 22 23 24 -27 -31 -33 37 -38 0
-7 10 11 14 15 -18 20 24 -27 -31 -34 0
28 29 31 0
-2 -7 10 11 14 15 20 24 -27 -31 -34 0
-3 -7 10 11 14 15 20 24 -27 -31 -34 0
2 3 -7 10 11 14 15 -19 20 22 23 24 -27 -31 37 -38 0
-19 20 22 23 24 -27 -29 -30 -31 36 -37 0
-14 20 22 23 24 -27 -29 -30 -31 36 38 0
-22 24 -27 -31 -35 0
10 -11 24 -27 -29 -31 -32 0
-18 24 -27 -31 -35 0
-9 -11 -12 0
-4 10 14 -15 24 -27 29 -31 32 33 0
2 3 7 11 15 -18 24 -27 -31 32 33 0
-15 20 22 23 24 -27 -29 -30 -31 36 38 0
4 10 14 -15 24 -27 -29 -31 0
20 22 23 24 -27 -29 -30 -31 -33 36 38 0
-4 10 14 18 -19 24 -27 29 -31 32 33 0
-19 24 -27 -31 -35 0
2 3 10 11 14 15 18 19 -22 24 -27 -31 32 33 34 0
-18 20 22 23 24 -27 -29 -30 -31 36 -37 0
23 24 -27 -31 -35 0
